NAME 
OBJSENSE MAX
ROWS
 N  OBJ
 L  packing[0]
 L  packing[1]
 L  packing[2]
 L  packing[3]
 L  packing[4]
 L  packing[5]
 L  packing[6]
 L  packing[7]
 L  packing[8]
 L  packing[9]
 L  packing[10]
 L  packing[11]
 L  packing[12]
 L  packing[13]
 L  packing[14]
 L  packing[15]
 L  packing[16]
 L  packing[17]
 L  packing[18]
 L  packing[19]
 L  packing[20]
 L  packing[21]
 L  packing[22]
 L  packing[23]
 L  packing[24]
 L  packing[25]
 L  packing[26]
 L  packing[27]
 L  packing[28]
 L  packing[29]
 L  packing[30]
 L  packing[31]
 L  packing[32]
 L  packing[33]
 L  packing[34]
 L  packing[35]
 L  packing[36]
 L  packing[37]
 L  packing[38]
 L  packing[39]
 L  packing[40]
 L  packing[41]
 L  packing[42]
 L  packing[43]
 L  packing[44]
 L  packing[45]
 L  packing[46]
 L  packing[47]
 L  packing[48]
 L  packing[49]
 L  R55     
COLUMNS
    MARKER    'MARKER'                 'INTORG'
    x[1]      OBJ       89
    x[1]      packing[0]  195
    x[1]      packing[4]  27
    x[1]      packing[5]  112
    x[1]      packing[6]  136
    x[1]      packing[9]  96
    x[1]      packing[10]  12
    x[1]      packing[13]  155
    x[1]      packing[14]  123
    x[1]      packing[15]  55
    x[1]      packing[16]  68
    x[1]      packing[17]  105
    x[1]      packing[18]  20
    x[1]      packing[20]  43
    x[1]      packing[21]  93
    x[1]      packing[23]  185
    x[1]      packing[24]  10
    x[1]      packing[25]  144
    x[1]      packing[26]  58
    x[1]      packing[28]  39
    x[1]      packing[29]  149
    x[1]      packing[31]  140
    x[1]      packing[32]  132
    x[1]      packing[33]  164
    x[1]      packing[34]  166
    x[1]      packing[35]  4
    x[1]      packing[36]  96
    x[1]      packing[39]  118
    x[1]      packing[40]  20
    x[1]      packing[42]  14
    x[1]      packing[44]  28
    x[1]      packing[45]  79
    x[1]      packing[46]  193
    x[1]      packing[47]  57
    x[1]      packing[48]  67
    x[2]      OBJ       19
    x[2]      packing[0]  176
    x[2]      packing[1]  80
    x[2]      packing[2]  30
    x[2]      packing[3]  77
    x[2]      packing[4]  19
    x[2]      packing[5]  179
    x[2]      packing[6]  192
    x[2]      packing[7]  103
    x[2]      packing[8]  137
    x[2]      packing[9]  144
    x[2]      packing[12]  186
    x[2]      packing[13]  159
    x[2]      packing[14]  135
    x[2]      packing[15]  164
    x[2]      packing[16]  77
    x[2]      packing[17]  138
    x[2]      packing[18]  186
    x[2]      packing[19]  7
    x[2]      packing[20]  35
    x[2]      packing[21]  38
    x[2]      packing[23]  42
    x[2]      packing[24]  64
    x[2]      packing[28]  53
    x[2]      packing[29]  84
    x[2]      packing[30]  181
    x[2]      packing[31]  40
    x[2]      packing[32]  58
    x[2]      packing[33]  173
    x[2]      packing[35]  105
    x[2]      packing[37]  155
    x[2]      packing[39]  160
    x[2]      packing[40]  51
    x[2]      packing[42]  9
    x[2]      packing[43]  141
    x[2]      packing[45]  5
    x[2]      packing[46]  17
    x[2]      packing[47]  116
    x[2]      packing[48]  107
    x[2]      packing[49]  199
    x[3]      OBJ       143
    x[3]      packing[0]  161
    x[3]      packing[3]  18
    x[3]      packing[4]  132
    x[3]      packing[5]  132
    x[3]      packing[6]  114
    x[3]      packing[7]  13
    x[3]      packing[8]  148
    x[3]      packing[9]  150
    x[3]      packing[11]  55
    x[3]      packing[12]  88
    x[3]      packing[13]  190
    x[3]      packing[14]  90
    x[3]      packing[15]  26
    x[3]      packing[16]  38
    x[3]      packing[18]  151
    x[3]      packing[19]  94
    x[3]      packing[20]  134
    x[3]      packing[21]  48
    x[3]      packing[22]  136
    x[3]      packing[24]  76
    x[3]      packing[27]  57
    x[3]      packing[28]  37
    x[3]      packing[29]  90
    x[3]      packing[31]  82
    x[3]      packing[36]  83
    x[3]      packing[37]  100
    x[3]      packing[38]  96
    x[3]      packing[39]  140
    x[3]      packing[41]  123
    x[3]      packing[43]  32
    x[3]      packing[44]  84
    x[3]      packing[46]  76
    x[3]      packing[47]  181
    x[3]      packing[48]  26
    x[3]      packing[49]  179
    x[3]      R55       1
    x[4]      OBJ       25
    x[4]      packing[0]  136
    x[4]      packing[1]  179
    x[4]      packing[2]  49
    x[4]      packing[3]  83
    x[4]      packing[4]  69
    x[4]      packing[6]  163
    x[4]      packing[7]  160
    x[4]      packing[8]  102
    x[4]      packing[9]  156
    x[4]      packing[10]  78
    x[4]      packing[11]  160
    x[4]      packing[12]  156
    x[4]      packing[13]  34
    x[4]      packing[14]  197
    x[4]      packing[15]  73
    x[4]      packing[17]  92
    x[4]      packing[18]  196
    x[4]      packing[20]  177
    x[4]      packing[21]  56
    x[4]      packing[22]  11
    x[4]      packing[23]  173
    x[4]      packing[26]  138
    x[4]      packing[27]  183
    x[4]      packing[28]  119
    x[4]      packing[29]  17
    x[4]      packing[30]  48
    x[4]      packing[32]  145
    x[4]      packing[33]  173
    x[4]      packing[35]  28
    x[4]      packing[36]  198
    x[4]      packing[37]  160
    x[4]      packing[39]  153
    x[4]      packing[40]  36
    x[4]      packing[41]  7
    x[4]      packing[42]  132
    x[4]      packing[43]  54
    x[4]      packing[44]  105
    x[4]      packing[45]  131
    x[4]      packing[46]  22
    x[4]      packing[48]  86
    x[4]      packing[49]  174
    x[5]      OBJ       186
    x[5]      packing[0]  113
    x[5]      packing[1]  164
    x[5]      packing[2]  100
    x[5]      packing[5]  17
    x[5]      packing[8]  191
    x[5]      packing[9]  144
    x[5]      packing[10]  166
    x[5]      packing[11]  91
    x[5]      packing[12]  16
    x[5]      packing[13]  51
    x[5]      packing[14]  195
    x[5]      packing[17]  61
    x[5]      packing[18]  145
    x[5]      packing[19]  144
    x[5]      packing[20]  114
    x[5]      packing[21]  66
    x[5]      packing[23]  161
    x[5]      packing[25]  82
    x[5]      packing[26]  170
    x[5]      packing[27]  40
    x[5]      packing[31]  184
    x[5]      packing[32]  41
    x[5]      packing[33]  70
    x[5]      packing[34]  148
    x[5]      packing[35]  135
    x[5]      packing[36]  98
    x[5]      packing[37]  151
    x[5]      packing[38]  91
    x[5]      packing[39]  118
    x[5]      packing[40]  54
    x[5]      packing[41]  47
    x[5]      packing[42]  83
    x[5]      packing[43]  2
    x[5]      packing[44]  63
    x[5]      packing[45]  39
    x[5]      packing[46]  178
    x[5]      packing[47]  61
    x[5]      packing[49]  38
    x[5]      R55       1
    x[6]      OBJ       48
    x[6]      packing[0]  11
    x[6]      packing[1]  91
    x[6]      packing[2]  173
    x[6]      packing[4]  4
    x[6]      packing[5]  4
    x[6]      packing[6]  119
    x[6]      packing[7]  13
    x[6]      packing[10]  54
    x[6]      packing[11]  136
    x[6]      packing[12]  106
    x[6]      packing[13]  22
    x[6]      packing[14]  90
    x[6]      packing[15]  103
    x[6]      packing[16]  135
    x[6]      packing[17]  125
    x[6]      packing[18]  108
    x[6]      packing[19]  84
    x[6]      packing[20]  3
    x[6]      packing[21]  85
    x[6]      packing[22]  173
    x[6]      packing[23]  84
    x[6]      packing[24]  56
    x[6]      packing[25]  38
    x[6]      packing[27]  7
    x[6]      packing[28]  1
    x[6]      packing[29]  144
    x[6]      packing[31]  149
    x[6]      packing[32]  29
    x[6]      packing[33]  78
    x[6]      packing[34]  153
    x[6]      packing[37]  163
    x[6]      packing[38]  60
    x[6]      packing[39]  132
    x[6]      packing[41]  18
    x[6]      packing[42]  20
    x[6]      packing[43]  51
    x[6]      packing[44]  144
    x[6]      packing[45]  190
    x[6]      packing[47]  56
    x[6]      packing[48]  28
    x[6]      packing[49]  125
    x[7]      OBJ       146
    x[7]      packing[0]  80
    x[7]      packing[1]  143
    x[7]      packing[2]  157
    x[7]      packing[4]  154
    x[7]      packing[7]  127
    x[7]      packing[8]  55
    x[7]      packing[9]  169
    x[7]      packing[10]  140
    x[7]      packing[11]  45
    x[7]      packing[12]  166
    x[7]      packing[13]  17
    x[7]      packing[15]  143
    x[7]      packing[16]  86
    x[7]      packing[17]  48
    x[7]      packing[18]  15
    x[7]      packing[19]  184
    x[7]      packing[20]  164
    x[7]      packing[23]  84
    x[7]      packing[24]  14
    x[7]      packing[25]  176
    x[7]      packing[26]  157
    x[7]      packing[27]  71
    x[7]      packing[28]  26
    x[7]      packing[31]  34
    x[7]      packing[32]  158
    x[7]      packing[34]  90
    x[7]      packing[36]  168
    x[7]      packing[37]  81
    x[7]      packing[39]  172
    x[7]      packing[42]  180
    x[7]      packing[44]  65
    x[7]      packing[45]  86
    x[7]      packing[48]  131
    x[7]      packing[49]  75
    x[7]      R55       1
    x[8]      OBJ       191
    x[8]      packing[0]  130
    x[8]      packing[1]  26
    x[8]      packing[2]  24
    x[8]      packing[3]  107
    x[8]      packing[5]  153
    x[8]      packing[6]  173
    x[8]      packing[7]  102
    x[8]      packing[9]  14
    x[8]      packing[10]  103
    x[8]      packing[11]  132
    x[8]      packing[12]  192
    x[8]      packing[14]  8
    x[8]      packing[15]  94
    x[8]      packing[16]  152
    x[8]      packing[19]  132
    x[8]      packing[20]  177
    x[8]      packing[21]  9
    x[8]      packing[22]  194
    x[8]      packing[23]  25
    x[8]      packing[25]  119
    x[8]      packing[27]  184
    x[8]      packing[28]  193
    x[8]      packing[30]  41
    x[8]      packing[31]  27
    x[8]      packing[33]  102
    x[8]      packing[34]  69
    x[8]      packing[35]  155
    x[8]      packing[36]  158
    x[8]      packing[37]  183
    x[8]      packing[38]  178
    x[8]      packing[39]  9
    x[8]      packing[40]  97
    x[8]      packing[44]  127
    x[8]      packing[45]  14
    x[8]      packing[46]  10
    x[8]      packing[48]  24
    x[8]      R55       1
    x[9]      OBJ       99
    x[9]      packing[1]  125
    x[9]      packing[2]  158
    x[9]      packing[3]  12
    x[9]      packing[4]  116
    x[9]      packing[5]  74
    x[9]      packing[7]  66
    x[9]      packing[8]  54
    x[9]      packing[9]  182
    x[9]      packing[10]  109
    x[9]      packing[12]  72
    x[9]      packing[14]  34
    x[9]      packing[15]  38
    x[9]      packing[17]  180
    x[9]      packing[18]  20
    x[9]      packing[19]  102
    x[9]      packing[20]  179
    x[9]      packing[21]  170
    x[9]      packing[22]  138
    x[9]      packing[23]  46
    x[9]      packing[25]  196
    x[9]      packing[26]  173
    x[9]      packing[27]  7
    x[9]      packing[28]  62
    x[9]      packing[29]  128
    x[9]      packing[31]  127
    x[9]      packing[32]  146
    x[9]      packing[34]  11
    x[9]      packing[38]  195
    x[9]      packing[40]  91
    x[9]      packing[41]  148
    x[9]      packing[42]  98
    x[9]      packing[43]  130
    x[9]      packing[45]  84
    x[9]      packing[47]  11
    x[9]      packing[48]  184
    x[9]      packing[49]  191
    x[10]     OBJ       14
    x[10]     packing[3]  117
    x[10]     packing[4]  120
    x[10]     packing[5]  134
    x[10]     packing[6]  35
    x[10]     packing[7]  75
    x[10]     packing[8]  89
    x[10]     packing[9]  66
    x[10]     packing[10]  39
    x[10]     packing[11]  15
    x[10]     packing[12]  48
    x[10]     packing[13]  176
    x[10]     packing[18]  193
    x[10]     packing[19]  164
    x[10]     packing[21]  160
    x[10]     packing[23]  8
    x[10]     packing[24]  68
    x[10]     packing[25]  183
    x[10]     packing[26]  174
    x[10]     packing[27]  187
    x[10]     packing[29]  50
    x[10]     packing[30]  61
    x[10]     packing[31]  68
    x[10]     packing[32]  159
    x[10]     packing[37]  135
    x[10]     packing[38]  120
    x[10]     packing[39]  85
    x[10]     packing[40]  120
    x[10]     packing[42]  195
    x[10]     packing[43]  1
    x[10]     packing[44]  124
    x[10]     packing[45]  5
    x[10]     packing[46]  136
    x[10]     packing[47]  23
    x[10]     packing[49]  53
    x[11]     OBJ       20
    x[11]     packing[1]  17
    x[11]     packing[3]  40
    x[11]     packing[4]  151
    x[11]     packing[5]  113
    x[11]     packing[6]  164
    x[11]     packing[9]  176
    x[11]     packing[10]  185
    x[11]     packing[12]  194
    x[11]     packing[14]  56
    x[11]     packing[15]  108
    x[11]     packing[16]  166
    x[11]     packing[17]  181
    x[11]     packing[18]  87
    x[11]     packing[19]  155
    x[11]     packing[20]  118
    x[11]     packing[22]  55
    x[11]     packing[23]  92
    x[11]     packing[24]  78
    x[11]     packing[26]  153
    x[11]     packing[27]  165
    x[11]     packing[28]  117
    x[11]     packing[29]  8
    x[11]     packing[31]  89
    x[11]     packing[32]  69
    x[11]     packing[34]  116
    x[11]     packing[35]  36
    x[11]     packing[37]  19
    x[11]     packing[38]  97
    x[11]     packing[39]  93
    x[11]     packing[40]  136
    x[11]     packing[41]  92
    x[11]     packing[42]  136
    x[11]     packing[43]  157
    x[11]     packing[44]  128
    x[11]     packing[45]  43
    x[11]     packing[47]  18
    x[11]     packing[48]  178
    x[11]     packing[49]  96
    x[12]     OBJ       158
    x[12]     packing[0]  139
    x[12]     packing[2]  5
    x[12]     packing[3]  51
    x[12]     packing[4]  115
    x[12]     packing[5]  170
    x[12]     packing[6]  197
    x[12]     packing[7]  127
    x[12]     packing[8]  102
    x[12]     packing[10]  187
    x[12]     packing[11]  68
    x[12]     packing[12]  191
    x[12]     packing[13]  152
    x[12]     packing[14]  95
    x[12]     packing[15]  8
    x[12]     packing[16]  174
    x[12]     packing[17]  136
    x[12]     packing[18]  121
    x[12]     packing[21]  145
    x[12]     packing[22]  93
    x[12]     packing[23]  136
    x[12]     packing[24]  61
    x[12]     packing[25]  130
    x[12]     packing[28]  50
    x[12]     packing[29]  111
    x[12]     packing[31]  195
    x[12]     packing[32]  17
    x[12]     packing[33]  50
    x[12]     packing[34]  3
    x[12]     packing[35]  35
    x[12]     packing[36]  33
    x[12]     packing[38]  178
    x[12]     packing[39]  106
    x[12]     packing[40]  168
    x[12]     packing[41]  164
    x[12]     packing[43]  183
    x[12]     packing[44]  64
    x[12]     packing[45]  46
    x[12]     packing[46]  119
    x[12]     packing[47]  50
    x[12]     packing[48]  65
    x[12]     packing[49]  80
    x[12]     R55       1
    x[13]     OBJ       110
    x[13]     packing[1]  59
    x[13]     packing[2]  167
    x[13]     packing[4]  55
    x[13]     packing[6]  36
    x[13]     packing[7]  29
    x[13]     packing[8]  28
    x[13]     packing[9]  185
    x[13]     packing[11]  181
    x[13]     packing[13]  157
    x[13]     packing[14]  20
    x[13]     packing[15]  17
    x[13]     packing[16]  36
    x[13]     packing[17]  18
    x[13]     packing[18]  181
    x[13]     packing[19]  85
    x[13]     packing[20]  68
    x[13]     packing[21]  78
    x[13]     packing[22]  112
    x[13]     packing[23]  55
    x[13]     packing[24]  116
    x[13]     packing[25]  198
    x[13]     packing[26]  1
    x[13]     packing[27]  81
    x[13]     packing[28]  92
    x[13]     packing[30]  164
    x[13]     packing[31]  66
    x[13]     packing[32]  182
    x[13]     packing[33]  146
    x[13]     packing[34]  170
    x[13]     packing[35]  35
    x[13]     packing[37]  168
    x[13]     packing[39]  96
    x[13]     packing[40]  166
    x[13]     packing[41]  164
    x[13]     packing[42]  63
    x[13]     packing[44]  105
    x[13]     packing[45]  164
    x[13]     packing[46]  126
    x[13]     packing[47]  2
    x[13]     packing[49]  195
    x[14]     OBJ       12
    x[14]     packing[0]  45
    x[14]     packing[1]  187
    x[14]     packing[2]  172
    x[14]     packing[3]  74
    x[14]     packing[4]  44
    x[14]     packing[5]  181
    x[14]     packing[6]  93
    x[14]     packing[7]  31
    x[14]     packing[8]  149
    x[14]     packing[9]  48
    x[14]     packing[10]  98
    x[14]     packing[11]  199
    x[14]     packing[13]  73
    x[14]     packing[17]  116
    x[14]     packing[19]  36
    x[14]     packing[20]  157
    x[14]     packing[21]  123
    x[14]     packing[22]  122
    x[14]     packing[23]  180
    x[14]     packing[25]  194
    x[14]     packing[26]  153
    x[14]     packing[27]  33
    x[14]     packing[29]  176
    x[14]     packing[30]  23
    x[14]     packing[31]  26
    x[14]     packing[32]  12
    x[14]     packing[33]  7
    x[14]     packing[34]  116
    x[14]     packing[35]  141
    x[14]     packing[36]  107
    x[14]     packing[39]  153
    x[14]     packing[41]  34
    x[14]     packing[42]  13
    x[14]     packing[43]  183
    x[14]     packing[44]  14
    x[14]     packing[45]  188
    x[14]     packing[47]  37
    x[14]     packing[48]  42
    x[15]     OBJ       115
    x[15]     packing[0]  169
    x[15]     packing[2]  150
    x[15]     packing[3]  174
    x[15]     packing[6]  13
    x[15]     packing[7]  56
    x[15]     packing[9]  4
    x[15]     packing[12]  104
    x[15]     packing[13]  12
    x[15]     packing[14]  63
    x[15]     packing[16]  88
    x[15]     packing[17]  19
    x[15]     packing[18]  167
    x[15]     packing[19]  94
    x[15]     packing[21]  81
    x[15]     packing[23]  57
    x[15]     packing[25]  115
    x[15]     packing[26]  179
    x[15]     packing[27]  43
    x[15]     packing[28]  67
    x[15]     packing[29]  49
    x[15]     packing[30]  93
    x[15]     packing[32]  71
    x[15]     packing[33]  111
    x[15]     packing[35]  180
    x[15]     packing[36]  168
    x[15]     packing[37]  55
    x[15]     packing[38]  94
    x[15]     packing[39]  87
    x[15]     packing[40]  114
    x[15]     packing[42]  27
    x[15]     packing[45]  157
    x[15]     packing[46]  48
    x[15]     packing[47]  51
    x[15]     packing[48]  76
    x[15]     packing[49]  43
    x[15]     R55       1
    x[16]     OBJ       106
    x[16]     packing[0]  32
    x[16]     packing[1]  8
    x[16]     packing[2]  151
    x[16]     packing[3]  101
    x[16]     packing[4]  66
    x[16]     packing[5]  84
    x[16]     packing[8]  158
    x[16]     packing[10]  158
    x[16]     packing[11]  122
    x[16]     packing[12]  110
    x[16]     packing[13]  24
    x[16]     packing[14]  140
    x[16]     packing[15]  63
    x[16]     packing[17]  153
    x[16]     packing[18]  190
    x[16]     packing[19]  6
    x[16]     packing[20]  134
    x[16]     packing[21]  52
    x[16]     packing[23]  71
    x[16]     packing[24]  117
    x[16]     packing[25]  17
    x[16]     packing[26]  92
    x[16]     packing[29]  112
    x[16]     packing[30]  6
    x[16]     packing[31]  166
    x[16]     packing[32]  48
    x[16]     packing[34]  193
    x[16]     packing[35]  173
    x[16]     packing[36]  96
    x[16]     packing[38]  87
    x[16]     packing[39]  135
    x[16]     packing[41]  136
    x[16]     packing[42]  51
    x[16]     packing[43]  136
    x[16]     packing[44]  163
    x[16]     packing[45]  26
    x[16]     packing[46]  156
    x[16]     packing[48]  67
    x[16]     packing[49]  87
    x[16]     R55       1
    x[17]     OBJ       2
    x[17]     packing[0]  162
    x[17]     packing[1]  68
    x[17]     packing[2]  127
    x[17]     packing[3]  121
    x[17]     packing[4]  48
    x[17]     packing[6]  199
    x[17]     packing[8]  187
    x[17]     packing[12]  84
    x[17]     packing[13]  66
    x[17]     packing[14]  7
    x[17]     packing[15]  71
    x[17]     packing[16]  8
    x[17]     packing[17]  192
    x[17]     packing[18]  51
    x[17]     packing[20]  163
    x[17]     packing[21]  199
    x[17]     packing[22]  185
    x[17]     packing[24]  16
    x[17]     packing[27]  48
    x[17]     packing[28]  23
    x[17]     packing[29]  99
    x[17]     packing[30]  76
    x[17]     packing[31]  124
    x[17]     packing[32]  47
    x[17]     packing[33]  6
    x[17]     packing[34]  173
    x[17]     packing[35]  199
    x[17]     packing[36]  195
    x[17]     packing[38]  13
    x[17]     packing[41]  47
    x[17]     packing[42]  190
    x[17]     packing[44]  76
    x[17]     packing[45]  146
    x[17]     packing[46]  166
    x[17]     packing[47]  175
    x[17]     packing[48]  135
    x[17]     packing[49]  184
    x[18]     OBJ       1
    x[18]     packing[0]  12
    x[18]     packing[1]  167
    x[18]     packing[2]  90
    x[18]     packing[5]  112
    x[18]     packing[7]  147
    x[18]     packing[8]  80
    x[18]     packing[9]  88
    x[18]     packing[11]  122
    x[18]     packing[13]  164
    x[18]     packing[14]  28
    x[18]     packing[15]  14
    x[18]     packing[16]  178
    x[18]     packing[17]  156
    x[18]     packing[18]  82
    x[18]     packing[19]  162
    x[18]     packing[20]  166
    x[18]     packing[21]  128
    x[18]     packing[23]  124
    x[18]     packing[25]  171
    x[18]     packing[26]  64
    x[18]     packing[28]  143
    x[18]     packing[29]  2
    x[18]     packing[30]  174
    x[18]     packing[31]  183
    x[18]     packing[32]  75
    x[18]     packing[34]  32
    x[18]     packing[35]  79
    x[18]     packing[36]  160
    x[18]     packing[37]  32
    x[18]     packing[38]  1
    x[18]     packing[40]  130
    x[18]     packing[41]  173
    x[18]     packing[42]  14
    x[18]     packing[43]  169
    x[18]     packing[44]  180
    x[18]     packing[45]  92
    x[18]     packing[46]  48
    x[18]     packing[47]  185
    x[18]     packing[48]  159
    x[18]     packing[49]  40
    x[19]     OBJ       84
    x[19]     packing[0]  69
    x[19]     packing[1]  47
    x[19]     packing[2]  26
    x[19]     packing[4]  165
    x[19]     packing[5]  77
    x[19]     packing[6]  154
    x[19]     packing[7]  102
    x[19]     packing[8]  140
    x[19]     packing[9]  178
    x[19]     packing[10]  194
    x[19]     packing[11]  100
    x[19]     packing[14]  39
    x[19]     packing[15]  144
    x[19]     packing[16]  147
    x[19]     packing[20]  150
    x[19]     packing[21]  86
    x[19]     packing[22]  188
    x[19]     packing[24]  59
    x[19]     packing[25]  130
    x[19]     packing[26]  157
    x[19]     packing[27]  17
    x[19]     packing[28]  183
    x[19]     packing[29]  85
    x[19]     packing[30]  5
    x[19]     packing[31]  107
    x[19]     packing[32]  139
    x[19]     packing[33]  33
    x[19]     packing[35]  124
    x[19]     packing[36]  192
    x[19]     packing[37]  62
    x[19]     packing[38]  80
    x[19]     packing[40]  106
    x[19]     packing[41]  108
    x[19]     packing[42]  114
    x[19]     packing[43]  15
    x[19]     packing[46]  96
    x[19]     packing[48]  185
    x[19]     packing[49]  160
    x[20]     OBJ       189
    x[20]     packing[0]  47
    x[20]     packing[1]  38
    x[20]     packing[2]  163
    x[20]     packing[3]  84
    x[20]     packing[4]  15
    x[20]     packing[5]  37
    x[20]     packing[6]  122
    x[20]     packing[8]  189
    x[20]     packing[9]  177
    x[20]     packing[10]  69
    x[20]     packing[11]  60
    x[20]     packing[13]  25
    x[20]     packing[17]  190
    x[20]     packing[18]  121
    x[20]     packing[19]  31
    x[20]     packing[20]  98
    x[20]     packing[22]  147
    x[20]     packing[23]  59
    x[20]     packing[25]  53
    x[20]     packing[26]  94
    x[20]     packing[27]  80
    x[20]     packing[28]  3
    x[20]     packing[29]  76
    x[20]     packing[30]  178
    x[20]     packing[33]  47
    x[20]     packing[34]  60
    x[20]     packing[35]  141
    x[20]     packing[36]  159
    x[20]     packing[38]  33
    x[20]     packing[39]  4
    x[20]     packing[41]  40
    x[20]     packing[42]  157
    x[20]     packing[43]  159
    x[20]     packing[45]  195
    x[20]     packing[46]  121
    x[20]     packing[47]  18
    x[20]     packing[48]  103
    MARKER    'MARKER'                 'INTEND'
RHS
    RHS1      packing[0]  839
    RHS1      packing[1]  700
    RHS1      packing[2]  871
    RHS1      packing[3]  530
    RHS1      packing[4]  650
    RHS1      packing[5]  790
    RHS1      packing[6]  955
    RHS1      packing[7]  576
    RHS1      packing[8]  905
    RHS1      packing[9]  989
    RHS1      packing[10]  796
    RHS1      packing[11]  743
    RHS1      packing[12]  857
    RHS1      packing[13]  739
    RHS1      packing[14]  660
    RHS1      packing[15]  561
    RHS1      packing[16]  677
    RHS1      packing[17]  955
    RHS1      packing[18]  1017
    RHS1      packing[19]  740
    RHS1      packing[20]  1040
    RHS1      packing[21]  809
    RHS1      packing[22]  777
    RHS1      packing[23]  791
    RHS1      packing[24]  368
    RHS1      packing[25]  973
    RHS1      packing[26]  882
    RHS1      packing[27]  602
    RHS1      packing[28]  604
    RHS1      packing[29]  690
    RHS1      packing[30]  525
    RHS1      packing[31]  904
    RHS1      packing[32]  764
    RHS1      packing[33]  580
    RHS1      packing[34]  750
    RHS1      packing[35]  785
    RHS1      packing[36]  956
    RHS1      packing[37]  732
    RHS1      packing[38]  662
    RHS1      packing[39]  881
    RHS1      packing[40]  645
    RHS1      packing[41]  651
    RHS1      packing[42]  748
    RHS1      packing[43]  707
    RHS1      packing[44]  735
    RHS1      packing[45]  845
    RHS1      packing[46]  756
    RHS1      packing[47]  521
    RHS1      packing[48]  832
    RHS1      packing[49]  960
    RHS1      R55       6
BOUNDS
 BV BND1      x[1]    
 BV BND1      x[2]    
 BV BND1      x[3]    
 BV BND1      x[4]    
 BV BND1      x[5]    
 BV BND1      x[6]    
 BV BND1      x[7]    
 BV BND1      x[8]    
 BV BND1      x[9]    
 BV BND1      x[10]   
 BV BND1      x[11]   
 BV BND1      x[12]   
 BV BND1      x[13]   
 BV BND1      x[14]   
 BV BND1      x[15]   
 BV BND1      x[16]   
 BV BND1      x[17]   
 BV BND1      x[18]   
 BV BND1      x[19]   
 BV BND1      x[20]   
ENDATA
